\ENCODING=ISO-8859-1
\Problem name: 

Minimize
 obj: x1 + x2 + x3 + x4 + x5 + x6 + x7 + x8 + x9 + x10 + x11 + x12 + x13 + x14
      + x15 + x16 + x17 + x18 + x19 + 2 x20 + 2 x21 + 2 x22 + 2 x23 + 2 x24
      + 2 x25 + 2 x26 + 2 x27 + 2 x28 + 2 x29 + 2 x30 + 2 x31 + 2 x32 + 2 x33
      + 2 x34 + 2 x35 + 2 x36 + 2 x37 + 2 x38 + 2 x39 + 2 x40 + 3 x41 + 3 x42
      + 3 x43 + 3 x44 + 3 x45 + 3 x46 + 3 x47 + 3 x48 + 3 x49 + 3 x50 + 3 x51
      + 3 x52 + 3 x53 + 3 x54 + 3 x55 + 3 x56 + 3 x57 + 4 x58 + 4 x59 + 4 x60
      + 4 x61 + 4 x62 + 4 x63 + 4 x64 + 4 x65 + 4 x66 + 4 x67 + 4 x68 + 4 x69
      + 4 x70 + 4 x71 + 5 x72 + 5 x73 + 5 x74 + 5 x75 + 5 x76 + 5 x77 + 5 x78
      + 5 x79 + 5 x80 + 6 x81 + 6 x82 + 6 x83 + 6 x84 + 6 x85 + 6 x86 + 6 x87
      + 6 x88 + 6 x89 + 6 x90 + 6 x91 + 6 x92 + 6 x93 + 6 x94 + 6 x95 + 6 x96
      + 7 x97 + 7 x98 + 7 x99 + 7 x100 + 7 x101 + 7 x102 + 7 x103 + 7 x104
      + 8 x105 + 8 x106 + 8 x107 + 8 x108 + 8 x109 + 8 x110 + 8 x111 + 8 x112
      + 8 x113 + 8 x114 + 8 x115 + 9 x116 + 9 x117 + 9 x118 + 9 x119 + 9 x120
      + 9 x121 + 9 x122 + 9 x123 + 9 x124 + 9 x125 + 9 x126 + 9 x127 + 10 x128
      + 10 x129 + 10 x130 + 10 x131 + 10 x132 + 10 x133 + 10 x134 + 10 x135
      + 10 x136 + 10 x137 + 10 x138 + 11 x139 + 11 x140 + 11 x141 + 11 x142
      + 11 x143 + 11 x144 + 11 x145 + 12 x146 + 12 x147 + 12 x148 + 12 x149
      + 12 x150 + 12 x151 + 12 x152 + 12 x153 + 12 x154 + 12 x155 + 12 x156
      + 12 x157 + 13 x158 + 13 x159 + 13 x160 + 13 x161 + 13 x162 + 14 x163
      + 14 x164 + 14 x165 + 14 x166 + 14 x167 + 15 x168 + 15 x169 + 16 x170
      + 16 x171 + 16 x172 + 16 x173 + 17 x174 + 17 x175 + 17 x176 + 17 x177
      + 18 x178 + 18 x179 + 18 x180 + 19 x181 + 19 x182 + 20 x183 + 20 x184
      + 21 x185 + 22 x186 + 22 x187 + 23 x188 + 23 x189 + 25 x190 + 26 x191
      + 26 x192 + 26 x193
Subject To
 c1:   x49 + x58 + x62 + x90 + x100 + x109 + x116 + x183 + x186 >= 1
 c2:   x14 + x20 + x32 + x150 + x155 + x164 + x172 + x190 >= 1
 c3:   x7 + x54 + x120 + x168 + x182 + x187 >= 1
 c4:   x53 + x58 + x140 + x184 + x187 >= 1
 c5:   x41 + x53 + x156 + x172 >= 1
 c6:   x41 + x55 + x69 + x91 + x101 + x108 >= 1
 c7:   x63 + x83 + x106 >= 1
 c8:   x48 + x124 + x132 + x150 + x175 >= 1
 c9:   x24 + x121 + x131 + x161 >= 1
 c10:  x86 + x107 + x136 >= 1
 c11:  x1 + x22 + x51 + x116 + x124 + x128 >= 1
 c12:  x43 + x58 + x141 + x147 + x178 >= 1
 c13:  x46 + x66 + x129 >= 1
 c14:  x41 + x72 + x99 + x172 >= 1
 c15:  x177 + x183 + x189 >= 1
 c16:  x29 + x58 + x105 + x116 + x141 + x151 + x181 >= 1
 c17:  x59 + x63 + x91 + x103 + x148 + x169 + x170 >= 1
 c18:  x125 + x131 + x141 + x148 + x167 + x191 >= 1
 c19:  x43 + x46 + x157 + x175 >= 1
 c20:  x42 + x72 + x146 + x164 + x171 + x179 >= 1
 c21:  x25 + x93 + x133 >= 1
 c22:  x27 + x102 + x169 >= 1
 c23:  x116 + x143 + x166 + x191 >= 1
 c24:  x3 + x30 + x49 + x64 + x171 >= 1
 c25:  x7 + x20 + x88 + x173 >= 1
 c26:  x22 + x34 + x41 + x61 + x111 + x114 + x168 >= 1
 c27:  x5 + x32 + x74 + x84 >= 1
 c28:  x73 + x164 + x173 + x186 >= 1
 c29:  x5 + x23 + x36 >= 1
 c30:  x8 + x158 + x180 + x186 >= 1
 c31:  x18 + x82 + x139 >= 1
 c32:  x54 + x61 + x120 + x155 + x187 >= 1
 c33:  x16 + x83 + x158 + x168 >= 1
 c34:  x3 + x9 + x21 + x45 + x143 >= 1
 c35:  x104 + x179 + x183 >= 1
 c36:  x88 + x98 + x128 + x148 + x167 + x170 >= 1
 c37:  x3 + x48 + x159 >= 1
 c38:  x14 + x154 + x158 >= 1
 c39:  x98 + x103 + x130 + x139 + x170 + x174 >= 1
 c40:  x26 + x53 + x169 + x171 + x185 >= 1
 c41:  x10 + x126 + x141 + x182 >= 1
 c42:  x28 + x91 + x113 + x143 + x153 + x164 >= 1
 c43:  x6 + x37 + x55 + x111 + x158 >= 1
 c44:  x10 + x54 + x66 + x122 + x169 >= 1
 c45:  x7 + x47 + x170 >= 1
 c46:  x93 + x123 + x190 >= 1
 c47:  x33 + x107 + x108 >= 1
 c48:  x20 >= 1
 c49:  x85 + x126 + x166 + x190 >= 1
 c50:  x42 + x57 + x73 + x106 + x142 + x162 >= 1
 c51:  x80 + x97 + x114 + x133 + x162 >= 1
 c52:  x39 + x69 + x159 >= 1
 c53:  x8 + x62 >= 1
 c54:  x58 + x77 + x97 + x168 >= 1
 c55:  x68 + x73 + x109 + x130 + x135 + x165 + x186 + x193 >= 1
 c56:  x5 + x24 + x143 + x148 >= 1
 c57:  x35 + x43 + x163 >= 1
 c58:  x6 + x35 + x76 + x98 + x122 + x123 + x138 + x187 >= 1
 c59:  x41 + x85 + x151 >= 1
 c60:  x42 + x60 + x84 >= 1
 c61:  x88 + x102 + x112 + x130 + x156 + x181 + x189 + x193 >= 1
 c62:  x4 + x10 + x27 + x105 + x117 >= 1
 c63:  x77 + x134 + x169 + x192 >= 1
 c64:  x2 + x124 >= 1
 c65:  x104 + x127 + x142 + x147 >= 1
 c66:  x72 + x86 + x110 >= 1
 c67:  x1 + x81 >= 1
 c68:  x2 + x81 >= 1
 c69:  x89 + x133 + x151 + x158 >= 1
 c70:  x77 + x122 + x127 + x130 + x147 >= 1
 c71:  x121 + x124 + x135 + x163 + x174 + x180 + x186 + x190 >= 1
 c72:  x137 + x138 + x144 + x155 + x160 + x171 + x172 >= 1
 c73:  x8 + x32 + x47 + x186 >= 1
 c74:  x36 + x74 + x160 + x168 + x176 + x187 >= 1
 c75:  x159 + x172 >= 1
 c76:  x3 + x9 + x25 + x83 + x99 + x154 + x184 >= 1
 c77:  x95 + x178 >= 1
 c78:  x11 + x34 + x64 + x187 >= 1
 c79:  x61 + x90 + x119 + x120 >= 1
 c80:  x31 + x46 + x141 + x146 + x167 + x173 >= 1
 c81:  x7 + x84 + x118 + x121 >= 1
 c82:  x34 + x108 + x153 + x160 >= 1
 c83:  x87 + x116 + x143 + x158 + x174 >= 1
 c84:  x28 + x39 + x134 >= 1
 c85:  x20 + x44 + x63 + x97 >= 1
 c86:  x6 + x7 + x45 + x70 + x85 + x102 + x120 + x139 >= 1
 c87:  x97 + x132 + x149 + x182 >= 1
 c88:  x78 + x94 + x117 + x118 + x179 + x183 >= 1
 c89:  x47 + x139 >= 1
 c90:  x125 + x175 + x181 + x185 >= 1
 c91:  x29 + x33 + x178 >= 1
 c92:  x25 + x83 + x121 + x129 >= 1
 c93:  x15 + x106 + x147 >= 1
 c94:  x56 + x99 + x137 >= 1
 c95:  x99 + x113 + x153 + x159 + x173 >= 1
 c96:  x131 + x185 + x192 >= 1
 c97:  x11 + x42 + x56 + x144 >= 1
 c98:  x109 + x160 + x187 >= 1
 c99:  x61 + x78 + x108 >= 1
 c100: x81 + x92 + x104 >= 1
 c101: x50 + x68 + x150 >= 1
 c102: x59 + x96 + x122 + x154 + x177 >= 1
 c103: x4 + x42 + x163 + x164 + x191 >= 1
 c104: x31 + x32 + x73 + x81 + x86 + x100 + x118 + x128 + x152 + x166 >= 1
 c105: x9 + x26 + x45 + x78 + x83 + x110 + x127 >= 1
 c106: x65 + x95 >= 1
 c107: x17 + x43 + x50 + x51 + x75 + x183 >= 1
 c108: x4 + x30 + x101 + x134 + x140 + x165 + x169 + x178 >= 1
 c109: x1 + x6 + x97 + x119 + x136 >= 1
 c110: x1 + x31 + x82 + x129 + x139 >= 1
 c111: x52 + x87 + x99 + x130 >= 1
 c112: x3 + x41 + x47 + x123 + x139 >= 1
 c113: x1 + x58 + x70 + x72 + x75 + x164 >= 1
 c114: x111 + x143 + x180 + x182 >= 1
 c115: x44 + x48 + x62 + x134 >= 1
 c116: x44 + x70 + x84 + x89 + x148 + x188 + x189 + x192 >= 1
 c117: x24 >= 1
 c118: x8 + x76 + x146 + x168 >= 1
 c119: x9 + x20 + x50 + x74 + x100 >= 1
 c120: x5 + x107 >= 1
 c121: x27 + x37 + x59 + x153 >= 1
 c122: x44 + x62 + x117 + x146 + x161 >= 1
 c123: x30 + x129 + x179 >= 1
 c124: x96 + x135 + x145 + x152 + x168 >= 1
 c125: x2 + x10 + x13 + x101 + x146 >= 1
 c126: x21 + x25 + x51 + x64 + x72 + x111 + x113 + x159 >= 1
 c127: x2 + x5 + x188 >= 1
 c128: x12 + x31 + x48 + x49 + x113 + x149 + x192 >= 1
 c129: x29 + x43 + x151 >= 1
 c130: x59 + x82 + x150 >= 1
 c131: x2 + x42 >= 1
 c132: x145 + x149 + x155 + x157 + x163 + x165 + x170 >= 1
 c133: x58 + x173 + x176 >= 1
 c134: x8 + x103 >= 1
 c135: x64 + x149 + x152 + x161 + x164 + x184 >= 1
 c136: x117 + x183 >= 1
 c137: x102 >= 1
 c138: x3 + x22 + x77 + x119 + x125 >= 1
 c139: x21 + x85 + x174 >= 1
 c140: x28 + x72 + x123 >= 1
 c141: x21 + x112 + x117 + x175 >= 1
 c142: x11 + x167 >= 1
 c143: x71 + x81 + x105 + x189 >= 1
 c144: x36 + x112 >= 1
 c145: x17 + x188 >= 1
 c146: x27 + x71 + x151 >= 1
 c147: x29 + x42 + x139 + x141 >= 1
 c148: x79 + x88 + x110 + x140 + x151 + x165 + x193 >= 1
 c149: x43 + x101 + x140 + x147 >= 1
 c150: x13 + x50 + x52 + x144 >= 1
 c151: x57 + x74 + x181 + x187 >= 1
 c152: x24 + x41 + x43 + x107 + x119 >= 1
 c153: x82 + x129 + x149 + x161 + x184 + x191 >= 1
 c154: x78 + x150 >= 1
 c155: x28 + x86 + x115 + x132 + x165 + x170 >= 1
 c156: x20 + x60 + x119 + x128 + x142 + x179 >= 1
 c157: x41 + x152 + x178 + x187 >= 1
 c158: x21 + x46 + x49 + x72 + x105 + x137 >= 1
 c159: x45 + x82 + x97 + x106 >= 1
 c160: x4 + x55 + x65 + x67 + x76 + x142 + x190 >= 1
 c161: x176 + x184 + x188 + x193 >= 1
 c162: x33 + x76 + x128 >= 1
 c163: x38 + x163 + x183 >= 1
 c164: x115 + x133 + x140 + x167 + x186 + x192 >= 1
 c165: x15 + x67 + x75 + x114 + x119 + x138 + x152 + x191 >= 1
 c166: x4 + x15 + x60 + x76 + x110 + x163 >= 1
 c167: x6 + x26 + x117 + x147 + x174 >= 1
 c168: x1 + x23 + x42 + x73 + x128 >= 1
 c169: x12 + x13 + x19 + x78 + x89 + x149 + x165 + x169 >= 1
 c170: x5 + x73 + x89 + x112 + x147 >= 1
 c171: x23 + x92 + x105 + x128 + x141 + x166 >= 1
 c172: x22 + x98 + x105 + x131 + x180 >= 1
 c173: x23 + x80 + x146 + x186 >= 1
 c174: x35 + x100 + x129 + x166 >= 1
 c175: x1 + x60 + x83 + x181 >= 1
 c176: x77 >= 1
 c177: x46 + x185 >= 1
 c178: x107 + x126 + x154 + x175 >= 1
 c179: x21 + x65 + x118 + x120 >= 1
 c180: x3 + x38 + x62 + x90 >= 1
 c181: x44 + x82 + x131 + x171 + x176 >= 1
 c182: x75 + x79 + x98 + x132 + x136 + x142 + x166 >= 1
 c183: x87 + x117 + x159 >= 1
 c184: x16 + x45 + x75 + x81 + x142 + x177 >= 1
 c185: x69 + x106 + x109 + x114 + x120 + x140 + x156 >= 1
 c186: x24 + x30 + x157 >= 1
 c187: x2 + x22 + x74 + x76 + x170 + x185 + x190 >= 1
 c188: x11 + x14 + x59 + x98 + x123 + x168 + x188 >= 1
 c189: x23 + x25 + x66 + x98 >= 1
 c190: x21 + x87 + x146 + x186 + x191 >= 1
 c191: x63 + x74 + x148 >= 1
 c192: x1 + x4 + x72 + x73 + x153 + x158 + x188 >= 1
 c193: x41 + x75 + x97 + x122 + x163 >= 1
 c194: x2 + x26 + x68 + x75 >= 1
 c195: x12 + x108 + x118 + x121 + x150 + x177 + x189 >= 1
 c196: x67 + x118 + x182 + x190 >= 1
 c197: x40 + x41 + x60 + x85 + x146 + x163 >= 1
 c198: x20 + x44 + x52 + x116 + x171 + x174 + x188 >= 1
 c199: x61 + x74 + x84 >= 1
 c200: x94 + x116 + x140 + x162 + x178 >= 1
Bounds
 0 <= x1 <= 1
 0 <= x2 <= 1
 0 <= x3 <= 1
 0 <= x4 <= 1
 0 <= x5 <= 1
 0 <= x6 <= 1
 0 <= x7 <= 1
 0 <= x8 <= 1
 0 <= x9 <= 1
 0 <= x10 <= 1
 0 <= x11 <= 1
 0 <= x12 <= 1
 0 <= x13 <= 1
 0 <= x14 <= 1
 0 <= x15 <= 1
 0 <= x16 <= 1
 0 <= x17 <= 1
 0 <= x18 <= 1
 0 <= x19 <= 1
 0 <= x20 <= 1
 0 <= x21 <= 1
 0 <= x22 <= 1
 0 <= x23 <= 1
 0 <= x24 <= 1
 0 <= x25 <= 1
 0 <= x26 <= 1
 0 <= x27 <= 1
 0 <= x28 <= 1
 0 <= x29 <= 1
 0 <= x30 <= 1
 0 <= x31 <= 1
 0 <= x32 <= 1
 0 <= x33 <= 1
 0 <= x34 <= 1
 0 <= x35 <= 1
 0 <= x36 <= 1
 0 <= x37 <= 1
 0 <= x38 <= 1
 0 <= x39 <= 1
 0 <= x40 <= 1
 0 <= x41 <= 1
 0 <= x42 <= 1
 0 <= x43 <= 1
 0 <= x44 <= 1
 0 <= x45 <= 1
 0 <= x46 <= 1
 0 <= x47 <= 1
 0 <= x48 <= 1
 0 <= x49 <= 1
 0 <= x50 <= 1
 0 <= x51 <= 1
 0 <= x52 <= 1
 0 <= x53 <= 1
 0 <= x54 <= 1
 0 <= x55 <= 1
 0 <= x56 <= 1
 0 <= x57 <= 1
 0 <= x58 <= 1
 0 <= x59 <= 1
 0 <= x60 <= 1
 0 <= x61 <= 1
 0 <= x62 <= 1
 0 <= x63 <= 1
 0 <= x64 <= 1
 0 <= x65 <= 1
 0 <= x66 <= 1
 0 <= x67 <= 1
 0 <= x68 <= 1
 0 <= x69 <= 1
 0 <= x70 <= 1
 0 <= x71 <= 1
 0 <= x72 <= 1
 0 <= x73 <= 1
 0 <= x74 <= 1
 0 <= x75 <= 1
 0 <= x76 <= 1
 0 <= x77 <= 1
 0 <= x78 <= 1
 0 <= x79 <= 1
 0 <= x80 <= 1
 0 <= x81 <= 1
 0 <= x82 <= 1
 0 <= x83 <= 1
 0 <= x84 <= 1
 0 <= x85 <= 1
 0 <= x86 <= 1
 0 <= x87 <= 1
 0 <= x88 <= 1
 0 <= x89 <= 1
 0 <= x90 <= 1
 0 <= x91 <= 1
 0 <= x92 <= 1
 0 <= x93 <= 1
 0 <= x94 <= 1
 0 <= x95 <= 1
 0 <= x96 <= 1
 0 <= x97 <= 1
 0 <= x98 <= 1
 0 <= x99 <= 1
 0 <= x100 <= 1
 0 <= x101 <= 1
 0 <= x102 <= 1
 0 <= x103 <= 1
 0 <= x104 <= 1
 0 <= x105 <= 1
 0 <= x106 <= 1
 0 <= x107 <= 1
 0 <= x108 <= 1
 0 <= x109 <= 1
 0 <= x110 <= 1
 0 <= x111 <= 1
 0 <= x112 <= 1
 0 <= x113 <= 1
 0 <= x114 <= 1
 0 <= x115 <= 1
 0 <= x116 <= 1
 0 <= x117 <= 1
 0 <= x118 <= 1
 0 <= x119 <= 1
 0 <= x120 <= 1
 0 <= x121 <= 1
 0 <= x122 <= 1
 0 <= x123 <= 1
 0 <= x124 <= 1
 0 <= x125 <= 1
 0 <= x126 <= 1
 0 <= x127 <= 1
 0 <= x128 <= 1
 0 <= x129 <= 1
 0 <= x130 <= 1
 0 <= x131 <= 1
 0 <= x132 <= 1
 0 <= x133 <= 1
 0 <= x134 <= 1
 0 <= x135 <= 1
 0 <= x136 <= 1
 0 <= x137 <= 1
 0 <= x138 <= 1
 0 <= x139 <= 1
 0 <= x140 <= 1
 0 <= x141 <= 1
 0 <= x142 <= 1
 0 <= x143 <= 1
 0 <= x144 <= 1
 0 <= x145 <= 1
 0 <= x146 <= 1
 0 <= x147 <= 1
 0 <= x148 <= 1
 0 <= x149 <= 1
 0 <= x150 <= 1
 0 <= x151 <= 1
 0 <= x152 <= 1
 0 <= x153 <= 1
 0 <= x154 <= 1
 0 <= x155 <= 1
 0 <= x156 <= 1
 0 <= x157 <= 1
 0 <= x158 <= 1
 0 <= x159 <= 1
 0 <= x160 <= 1
 0 <= x161 <= 1
 0 <= x162 <= 1
 0 <= x163 <= 1
 0 <= x164 <= 1
 0 <= x165 <= 1
 0 <= x166 <= 1
 0 <= x167 <= 1
 0 <= x168 <= 1
 0 <= x169 <= 1
 0 <= x170 <= 1
 0 <= x171 <= 1
 0 <= x172 <= 1
 0 <= x173 <= 1
 0 <= x174 <= 1
 0 <= x175 <= 1
 0 <= x176 <= 1
 0 <= x177 <= 1
 0 <= x178 <= 1
 0 <= x179 <= 1
 0 <= x180 <= 1
 0 <= x181 <= 1
 0 <= x182 <= 1
 0 <= x183 <= 1
 0 <= x184 <= 1
 0 <= x185 <= 1
 0 <= x186 <= 1
 0 <= x187 <= 1
 0 <= x188 <= 1
 0 <= x189 <= 1
 0 <= x190 <= 1
 0 <= x191 <= 1
 0 <= x192 <= 1
 0 <= x193 <= 1
Binaries
 x1  x2  x3  x4  x5  x6  x7  x8  x9  x10  x11  x12  x13  x14  x15  x16  x17 
 x18  x19  x20  x21  x22  x23  x24  x25  x26  x27  x28  x29  x30  x31  x32 
 x33  x34  x35  x36  x37  x38  x39  x40  x41  x42  x43  x44  x45  x46  x47 
 x48  x49  x50  x51  x52  x53  x54  x55  x56  x57  x58  x59  x60  x61  x62 
 x63  x64  x65  x66  x67  x68  x69  x70  x71  x72  x73  x74  x75  x76  x77 
 x78  x79  x80  x81  x82  x83  x84  x85  x86  x87  x88  x89  x90  x91  x92 
 x93  x94  x95  x96  x97  x98  x99  x100  x101  x102  x103  x104  x105  x106 
 x107  x108  x109  x110  x111  x112  x113  x114  x115  x116  x117  x118  x119 
 x120  x121  x122  x123  x124  x125  x126  x127  x128  x129  x130  x131  x132 
 x133  x134  x135  x136  x137  x138  x139  x140  x141  x142  x143  x144  x145 
 x146  x147  x148  x149  x150  x151  x152  x153  x154  x155  x156  x157  x158 
 x159  x160  x161  x162  x163  x164  x165  x166  x167  x168  x169  x170  x171 
 x172  x173  x174  x175  x176  x177  x178  x179  x180  x181  x182  x183  x184 
 x185  x186  x187  x188  x189  x190  x191  x192  x193 
End
